(declare-fun temp7618_1 () (_ BitVec 64))
(declare-fun var139826 () (_ BitVec 64))
(declare-fun var139820 () (_ BitVec 64))
(declare-fun temp7618_2 () (_ BitVec 64))
(declare-fun var75949 () (_ BitVec 64))
(declare-fun k!0 () Bool)
(declare-fun ARGNAME_filter_sizes_NAMEEND_DIM () (_ BitVec 64))
(declare-fun ARGNAME_data_format_NAMEEND_STRFMT () (_ BitVec 64))
(declare-fun temp7618_3 () (_ BitVec 64))
(declare-fun var76022 () (_ BitVec 64))
(declare-fun var76026 () (_ BitVec 64))
(declare-fun temp7618_4 () (_ BitVec 64))
(declare-fun var76027 () (_ BitVec 64))
(declare-fun temp7618_5 () (_ BitVec 64))
(declare-fun temp7618_6 () (_ BitVec 64))
(declare-fun ARGNAME_input_NAMEEND_DIM () (_ BitVec 64))
(declare-fun var76042 () (_ BitVec 64))
(declare-fun temp7618_7 () (_ BitVec 64))
(declare-fun temp7618_8 () (_ BitVec 64))
(declare-fun ARGNAME_out_backprop_NAMEEND_DIM () (_ BitVec 64))
(declare-fun var76103 () (_ BitVec 64))
(declare-fun temp7618_9 () (_ BitVec 64))
(declare-fun temp7618_10 () (_ BitVec 64))
(declare-fun ARGNAME_input_NAMEEND_DIMSIZE
             ()
             (Array (_ BitVec 64) (_ BitVec 64)))
(declare-fun temp7618_11 () (_ BitVec 64))
(declare-fun temp7618_12 () (_ BitVec 64))
(declare-fun temp7618_13 () (_ BitVec 64))
(declare-fun temp7618_14 () (_ BitVec 64))
(declare-fun temp7618_15 () (_ BitVec 64))
(declare-fun temp7618_16 () (_ BitVec 64))
(declare-fun temp7618_17 () (_ BitVec 64))
(declare-fun temp7618_18 () (_ BitVec 64))
(declare-fun temp7618_19 () (_ BitVec 64))
(declare-fun temp7618_20 () (_ BitVec 64))
(declare-fun temp7618_21 () (_ BitVec 64))
(declare-fun temp7618_22 () (_ BitVec 64))
(declare-fun temp7618_23 () (_ BitVec 64))
(declare-fun var76131 () (_ BitVec 64))
(declare-fun temp7618_24 () (_ BitVec 64))
(declare-fun ARGNAME_out_backprop_NAMEEND_DIMSIZE
             ()
             (Array (_ BitVec 64) (_ BitVec 64)))
(declare-fun temp7618_25 () (_ BitVec 64))
(declare-fun temp7618_26 () (_ BitVec 64))
(declare-fun temp7618_27 () (_ BitVec 64))
(declare-fun temp7618_28 () (_ BitVec 64))
(declare-fun temp7618_29 () (_ BitVec 64))
(declare-fun temp7618_30 () (_ BitVec 64))
(declare-fun temp7618_31 () (_ BitVec 64))
(declare-fun temp7618_32 () (_ BitVec 64))
(declare-fun temp7618_33 () (_ BitVec 64))
(declare-fun temp7618_34 () (_ BitVec 64))
(declare-fun temp7618_35 () (_ BitVec 64))
(declare-fun temp7618_36 () (_ BitVec 64))
(declare-fun temp7618_37 () (_ BitVec 64))
(declare-fun var76165 () (_ BitVec 64))
(declare-fun temp7618_38 () (_ BitVec 64))
(declare-fun ARGNAME_input_NAMEEND_NUMELEMENT () (_ BitVec 64))
(declare-fun var76268 () (_ BitVec 64))
(declare-fun temp7618_39 () (_ BitVec 64))
(declare-fun temp7618_40 () (_ BitVec 64))
(declare-fun var341046 () (_ BitVec 64))
(declare-fun temp7618_41 () (_ BitVec 64))
(declare-fun var341064 () (_ BitVec 64))
(declare-fun temp7618_42 () (_ BitVec 64))
(declare-fun temp7618_43 () (_ BitVec 64))
(declare-fun var472118 () (_ BitVec 64))
(declare-fun temp7618_44 () (_ BitVec 64))
(declare-fun var472136 () (_ BitVec 64))
(declare-fun temp7618_45 () (_ BitVec 64))
(declare-fun temp7618_46 () (_ BitVec 64))
(declare-fun var603190 () (_ BitVec 64))
(declare-fun temp7618_47 () (_ BitVec 64))
(declare-fun var603208 () (_ BitVec 64))
(declare-fun temp7618_48 () (_ BitVec 64))
(declare-fun temp7618_50 () (_ BitVec 64))
(declare-fun temp7618_49 () (_ BitVec 64))
(declare-fun temp7618_52 () (_ BitVec 64))
(declare-fun temp7618_51 () (_ BitVec 64))
(declare-fun temp7618_54 () (_ BitVec 64))
(declare-fun temp7618_53 () (_ BitVec 64))
(declare-fun temp7618_55 () (_ BitVec 64))
(declare-fun var795723 () (_ BitVec 64))
(declare-fun var795702 () (_ BitVec 64))
(declare-fun var730134 () (_ BitVec 64))
(declare-fun temp7618_56 () (_ BitVec 64))
(declare-fun temp7618_57 () (_ BitVec 64))
(declare-fun var861259 () (_ BitVec 64))
(declare-fun var861238 () (_ BitVec 64))
(declare-fun var730144 () (_ BitVec 64))
(declare-fun temp7618_58 () (_ BitVec 64))
(declare-fun temp7618_60 () (_ BitVec 64))
(declare-fun temp7618_59 () (_ BitVec 64))
(declare-fun temp7618_62 () (_ BitVec 64))
(declare-fun temp7618_61 () (_ BitVec 64))
(declare-fun temp7618_64 () (_ BitVec 64))
(declare-fun temp7618_63 () (_ BitVec 64))
(declare-fun temp7618_65 () (_ BitVec 64))
(declare-fun var1057842 () (_ BitVec 64))
(declare-fun temp7618_66 () (_ BitVec 64))
(declare-fun var1057843 () (_ BitVec 64))
(declare-fun var1057844 () (_ BitVec 64))
(declare-fun var1057840 () (_ BitVec 64))
(declare-fun var664540 () (_ BitVec 64))
(declare-fun temp7618_67 () (_ BitVec 64))
(declare-fun var1123378 () (_ BitVec 64))
(declare-fun temp7618_68 () (_ BitVec 64))
(declare-fun var1123379 () (_ BitVec 64))
(declare-fun var1123380 () (_ BitVec 64))
(declare-fun var1123376 () (_ BitVec 64))
(declare-fun var664547 () (_ BitVec 64))
(declare-fun temp7618_69 () (_ BitVec 64))
(declare-fun var1188914 () (_ BitVec 64))
(declare-fun temp7618_70 () (_ BitVec 64))
(declare-fun var1188915 () (_ BitVec 64))
(declare-fun var1188916 () (_ BitVec 64))
(declare-fun var1188912 () (_ BitVec 64))
(declare-fun var664552 () (_ BitVec 64))
(declare-fun var76450 () (_ BitVec 64))
(declare-fun temp7618_71 () (_ BitVec 64))
(declare-fun temp7618_72 () (_ BitVec 64))
(declare-fun var76511 () (_ BitVec 64))
(declare-fun var76512 () (_ BitVec 64))
(declare-fun temp7618_74 () (_ BitVec 64))
(declare-fun temp7618_73 () (_ BitVec 64))
(declare-fun temp7618_76 () (_ BitVec 64))
(declare-fun temp7618_75 () (_ BitVec 64))
(assert (or (= ARGNAME_data_format_NAMEEND_STRFMT #x0000000000000000)
    (= ARGNAME_data_format_NAMEEND_STRFMT #x0000000000000001)
    (= ARGNAME_data_format_NAMEEND_STRFMT #x0000000000000002)
    (= ARGNAME_data_format_NAMEEND_STRFMT #x0000000000000003)
    (= ARGNAME_data_format_NAMEEND_STRFMT #x0000000000000004)
    (= ARGNAME_data_format_NAMEEND_STRFMT #x0000000000000005)))
(assert (= temp7618_1 #x0000000000000001))
(assert (= var139826
   (ite (= ARGNAME_filter_sizes_NAMEEND_DIM temp7618_1)
        #x0000000000000001
        #x0000000000000000)))
(assert (= var139820 var139826))
(assert (= var75949 var139820))
(assert (= temp7618_2 #x0000000000000001))
(assert (= var75949 temp7618_2))
(assert (= temp7618_3 #x0000000000000000))
(assert (= var76022 temp7618_3))
(assert (= var76026 var76022))
(assert (= temp7618_4 #x0000000000000000))
(assert (= var76027 (ite (= var76026 temp7618_4) #x0000000000000001 #x0000000000000000)))
(assert (= temp7618_5 #x0000000000000001))
(assert (= var76027 temp7618_5))
(assert (= temp7618_6 #x0000000000000005))
(assert (= var76042
   (ite (= ARGNAME_input_NAMEEND_DIM temp7618_6)
        #x0000000000000001
        #x0000000000000000)))
(assert (= temp7618_7 #x0000000000000001))
(assert (= var76042 temp7618_7))
(assert (= temp7618_8 #x0000000000000005))
(assert (= var76103
   (ite (= ARGNAME_out_backprop_NAMEEND_DIM temp7618_8)
        #x0000000000000001
        #x0000000000000000)))
(assert (= temp7618_9 #x0000000000000001))
(assert (= var76103 temp7618_9))
(assert (= temp7618_10 #x0000000000000000))
(assert (= temp7618_11 (select ARGNAME_input_NAMEEND_DIMSIZE temp7618_10)))
(assert (= temp7618_12 #x0000000000000001))
(assert (= temp7618_13 (select ARGNAME_input_NAMEEND_DIMSIZE temp7618_12)))
(assert (= temp7618_14 #x0000000000000002))
(assert (= temp7618_15 (select ARGNAME_input_NAMEEND_DIMSIZE temp7618_14)))
(assert (= temp7618_16 #x0000000000000003))
(assert (= temp7618_17 (select ARGNAME_input_NAMEEND_DIMSIZE temp7618_16)))
(assert (= temp7618_18 #x0000000000000004))
(assert (= temp7618_19 (select ARGNAME_input_NAMEEND_DIMSIZE temp7618_18)))
(assert (= temp7618_20 #x0000000000000005))
(assert (= temp7618_21 (select ARGNAME_input_NAMEEND_DIMSIZE temp7618_20)))
(assert (= temp7618_22 #x0000000000000004))
(assert (= temp7618_23 (select ARGNAME_input_NAMEEND_DIMSIZE temp7618_22)))
(assert (= var76131 temp7618_23))
(assert (= temp7618_24 #x0000000000000000))
(assert (= temp7618_25 (select ARGNAME_out_backprop_NAMEEND_DIMSIZE temp7618_24)))
(assert (= temp7618_26 #x0000000000000001))
(assert (= temp7618_27 (select ARGNAME_out_backprop_NAMEEND_DIMSIZE temp7618_26)))
(assert (= temp7618_28 #x0000000000000002))
(assert (= temp7618_29 (select ARGNAME_out_backprop_NAMEEND_DIMSIZE temp7618_28)))
(assert (= temp7618_30 #x0000000000000003))
(assert (= temp7618_31 (select ARGNAME_out_backprop_NAMEEND_DIMSIZE temp7618_30)))
(assert (= temp7618_32 #x0000000000000004))
(assert (= temp7618_33 (select ARGNAME_out_backprop_NAMEEND_DIMSIZE temp7618_32)))
(assert (= temp7618_34 #x0000000000000005))
(assert (= temp7618_35 (select ARGNAME_out_backprop_NAMEEND_DIMSIZE temp7618_34)))
(assert (= temp7618_36 #x0000000000000004))
(assert (= temp7618_37 (select ARGNAME_out_backprop_NAMEEND_DIMSIZE temp7618_36)))
(assert (= var76165 temp7618_37))
(assert (= temp7618_38 #x0000000000000000))
(assert (= var76268
   (ite (= ARGNAME_input_NAMEEND_NUMELEMENT temp7618_38)
        #x0000000000000001
        #x0000000000000000)))
(assert (= temp7618_39 #x0000000000000000))
(assert (= var76268 temp7618_39))
(assert (= temp7618_40 #x0000000000000001))
(assert (= var341046 temp7618_40))
(assert (= temp7618_41 #x0000000000000001))
(assert (= var341064
   (ite (bvslt var341046 temp7618_41) #x0000000000000001 #x0000000000000000)))
(assert (= temp7618_42 #x0000000000000000))
(assert (= var341064 temp7618_42))
(assert (= temp7618_43 #x0000000000000001))
(assert (= var472118 temp7618_43))
(assert (= temp7618_44 #x0000000000000001))
(assert (= var472136
   (ite (bvslt var472118 temp7618_44) #x0000000000000001 #x0000000000000000)))
(assert (= temp7618_45 #x0000000000000000))
(assert (= var472136 temp7618_45))
(assert (= temp7618_46 #x0000000000000001))
(assert (= var603190 temp7618_46))
(assert (= temp7618_47 #x0000000000000001))
(assert (= var603208
   (ite (bvslt var603190 temp7618_47) #x0000000000000001 #x0000000000000000)))
(assert (= temp7618_48 #x0000000000000000))
(assert (= var603208 temp7618_48))
(assert (= temp7618_50 #x00000000000000ff))
(assert (= temp7618_49 temp7618_50))
(assert (= temp7618_52 #x00000000000000ff))
(assert (= temp7618_51 temp7618_52))
(assert (= temp7618_54 #x00000000000000ff))
(assert (= temp7618_53 temp7618_54))
(assert (= temp7618_55 #x0000000000000000))
(assert (= var795723 temp7618_55))
(assert (= var795702 var795723))
(assert (= var730134 var795702))
(assert (= temp7618_56 #x0000000000000000))
(assert (= var730134 temp7618_56))
(assert (= temp7618_57 #x0000000000000000))
(assert (= var861259 temp7618_57))
(assert (= var861238 var861259))
(assert (= var730144 var861238))
(assert (= temp7618_58 #x0000000000000000))
(assert (= var730144 temp7618_58))
(assert (= temp7618_60 #x0000000000000000))
(assert (= temp7618_59 temp7618_60))
(assert (= temp7618_62 #x0000000000000000))
(assert (= temp7618_61 temp7618_62))
(assert (= temp7618_64 #x0000000000000000))
(assert (= temp7618_63 temp7618_64))
(assert (= temp7618_65 #x0000000000008000))
(assert (= var1057842 temp7618_65))
(assert (= temp7618_66 #x0000000000000001))
(assert (= var1057843
   (ite (bvslt temp7618_63 temp7618_66) #x0000000000000001 #x0000000000000000)))
(assert (= var1057844 (ite (= var1057843 #x0000000000000001) var1057842 temp7618_63)))
(assert (= var1057840 var1057844))
(assert (= var664540 var1057840))
(assert (= temp7618_67 #x0000000000040000))
(assert (= var1123378 temp7618_67))
(assert (= temp7618_68 #x0000000000000001))
(assert (= var1123379
   (ite (bvslt temp7618_61 temp7618_68) #x0000000000000001 #x0000000000000000)))
(assert (= var1123380 (ite (= var1123379 #x0000000000000001) var1123378 temp7618_61)))
(assert (= var1123376 var1123380))
(assert (= var664547 var1123376))
(assert (= temp7618_69 #x0000000000200000))
(assert (= var1188914 temp7618_69))
(assert (= temp7618_70 #x0000000000000001))
(assert (= var1188915
   (ite (bvslt temp7618_59 temp7618_70) #x0000000000000001 #x0000000000000000)))
(assert (= var1188916 (ite (= var1188915 #x0000000000000001) var1188914 temp7618_59)))
(assert (= var1188912 var1188916))
(assert (= var664552 var1188912))
(assert (= var76450 var664552))
(assert (= temp7618_71 #x0000000000000003))
(assert (= temp7618_72 #xffffffffffffffff))
(assert (= var76512 (bvadd var76511 temp7618_72)))
(assert (= temp7618_74 #x0000000000000000))
(assert (= temp7618_73 temp7618_74))
(assert (= temp7618_76 #x0000000000000000))
(assert (= temp7618_75 temp7618_76))
(model-add temp7618_1 () (_ BitVec 64) #x0000000000000001)
(model-add var139826 () (_ BitVec 64) #x0000000000000001)
(model-add var139820 () (_ BitVec 64) #x0000000000000001)
(model-add temp7618_2 () (_ BitVec 64) #x0000000000000001)
(model-add var75949 () (_ BitVec 64) #x0000000000000001)
(model-del k!0)
(model-add ARGNAME_filter_sizes_NAMEEND_DIM
           ()
           (_ BitVec 64)
           (ite k!0 #x0000000000000001 (bvnot #x0000000000000001)))


